p tw 50 346
e 0 1
e 0 3
e 0 5
e 0 6
e 0 8
e 0 13
e 0 15
e 0 16
e 0 17
e 0 18
e 0 22
e 0 23
e 0 25
e 0 35
e 0 36
e 0 39
e 0 44
e 0 47
e 0 49
e 1 7
e 1 8
e 1 11
e 1 15
e 1 16
e 1 17
e 1 19
e 1 24
e 1 26
e 1 29
e 1 32
e 1 35
e 1 37
e 1 42
e 1 43
e 1 44
e 1 45
e 2 5
e 2 6
e 2 7
e 2 13
e 2 15
e 2 17
e 2 22
e 2 25
e 2 29
e 2 30
e 2 33
e 2 40
e 2 41
e 2 43
e 2 47
e 3 4
e 3 9
e 3 10
e 3 14
e 3 20
e 3 21
e 3 31
e 3 33
e 3 38
e 4 6
e 4 7
e 4 9
e 4 11
e 4 13
e 4 14
e 4 17
e 4 24
e 4 37
e 4 40
e 4 45
e 5 6
e 5 16
e 5 20
e 5 23
e 5 24
e 5 28
e 5 29
e 5 30
e 5 31
e 5 33
e 5 34
e 5 47
e 6 7
e 6 9
e 6 27
e 6 33
e 6 34
e 6 39
e 6 41
e 6 47
e 6 49
e 7 8
e 7 10
e 7 15
e 7 17
e 7 25
e 7 26
e 7 33
e 7 34
e 7 38
e 7 39
e 7 49
e 8 10
e 8 26
e 8 27
e 8 29
e 8 32
e 8 34
e 8 36
e 8 37
e 8 38
e 8 40
e 8 47
e 9 13
e 9 15
e 9 23
e 9 24
e 9 31
e 9 33
e 9 34
e 9 35
e 9 38
e 9 41
e 9 45
e 9 48
e 10 18
e 10 29
e 10 32
e 10 33
e 10 34
e 10 37
e 10 40
e 10 43
e 10 44
e 11 12
e 11 22
e 11 31
e 11 33
e 11 35
e 11 37
e 11 42
e 12 24
e 12 25
e 12 35
e 12 36
e 12 43
e 13 14
e 13 18
e 13 19
e 13 20
e 13 21
e 13 22
e 13 28
e 13 30
e 13 37
e 13 38
e 13 41
e 13 43
e 13 44
e 14 19
e 14 20
e 14 21
e 14 23
e 14 27
e 14 29
e 14 39
e 14 43
e 14 45
e 14 46
e 14 47
e 15 17
e 15 18
e 15 27
e 15 35
e 15 40
e 15 41
e 15 43
e 15 44
e 16 18
e 16 23
e 16 26
e 16 27
e 16 29
e 16 30
e 16 36
e 16 43
e 16 44
e 16 49
e 17 18
e 17 21
e 17 25
e 17 26
e 17 33
e 17 45
e 17 46
e 17 48
e 17 49
e 18 28
e 18 30
e 18 34
e 18 37
e 18 39
e 18 46
e 19 31
e 19 35
e 19 37
e 19 39
e 19 44
e 19 47
e 19 48
e 20 25
e 20 26
e 20 27
e 20 29
e 20 33
e 20 35
e 20 39
e 20 40
e 20 41
e 20 43
e 20 49
e 21 23
e 21 33
e 21 35
e 21 40
e 21 44
e 21 48
e 21 49
e 22 24
e 22 27
e 22 31
e 22 32
e 22 33
e 22 34
e 22 36
e 22 40
e 22 41
e 22 42
e 22 47
e 23 24
e 23 33
e 23 37
e 23 40
e 23 41
e 23 45
e 23 46
e 23 48
e 24 25
e 24 26
e 24 33
e 24 34
e 24 36
e 24 38
e 24 40
e 24 42
e 24 43
e 24 44
e 24 46
e 25 26
e 25 33
e 25 41
e 25 42
e 25 45
e 25 49
e 26 27
e 26 31
e 26 33
e 26 39
e 26 40
e 26 43
e 26 45
e 27 29
e 27 30
e 27 41
e 27 45
e 27 46
e 27 47
e 27 49
e 28 29
e 28 31
e 28 37
e 28 44
e 28 47
e 29 34
e 29 38
e 29 39
e 29 44
e 29 46
e 29 47
e 29 48
e 30 31
e 30 34
e 30 38
e 30 43
e 30 48
e 31 37
e 31 44
e 31 46
e 31 47
e 31 48
e 32 33
e 32 37
e 32 39
e 32 41
e 32 44
e 33 35
e 33 42
e 33 47
e 34 36
e 34 39
e 34 41
e 34 44
e 34 45
e 34 48
e 35 45
e 35 47
e 35 49
e 36 43
e 36 45
e 36 48
e 37 43
e 37 47
e 37 49
e 38 41
e 38 43
e 38 45
e 38 49
e 39 40
e 39 41
e 39 47
e 39 48
e 41 45
e 42 44
e 42 45
e 42 47
e 42 49
e 43 47
e 43 48
e 44 47
e 44 49
e 45 47
e 45 48
e 46 47
e 46 49
e 47 48
